files/upTests/_functions/funcSet/0001.eprime
language ESSENCE' 1.0

given a: int
given b: int
given c: int
given d: int
find f_Matrix1D_Occurrence: matrix indexed by [int(a..b), int(c..d)] of bool
such that
    10 > (sum v__0 : int(c..d) . f_Matrix1D_Occurrence[2, v__0] * 1),
    forAll v__0 : int(a..b)
        . (sum v__1 : int(c..d) . f_Matrix1D_Occurrence[v__0, v__1]) = 2
