files/upTests/_functions/funcSet/0001.eprime.solution
language ESSENCE' 1.0
$ minion Nodes: 1
$ minion TotalTime: 0.001279
$ Savile Row TotalTime: 0.545
letting f_AsReln_RelationAsSet_SetExplicitVarSize_tuple2_tuple2_SetExplicit be [[5, 6;int(1..2)], 
[5, 6;int(1..2)], 
[5, 6;int(1..2)];int(1..3)]
letting f_AsReln_RelationAsSet_SetExplicitVarSize_tuple2_tuple1 be [2, 3, 4;int(1..3)]
letting f_AsReln_RelationAsSet_SetExplicitVarSize_tuple1 be [true, true, true;int(1..3)]
